17	4
13	15	15	14	
0	0	0	0	0	3	2	3	4	
9	0	10	5	3	3	5	10	17	
10	8	1	0	3	3	7	8	15	
7	0	1	9	8	3	6	11	12	
2	4	3	5	0	3	8	9	13	
225	6	9	7	7	3	9	17	17	
125	9	6	9	0	3	9	17	17	
200	5	5	7	3	3	11	17	17	
200	3	9	0	3	3	17	17	17	
200	0	8	3	2	3	13	14	17	
175	5	0	7	0	3	16	17	17	
200	7	0	7	8	3	15	17	17	
2	0	8	0	8	3	16	17	17	
1	2	5	0	10	3	15	16	17	
5	0	0	6	4	1	17	
9	4	7	0	4	2	17	17	
0	0	0	0	0	0	
